
  22   10
  10   10   10   10   10   10   10   10   10   10

   0   0   0   0   0   0   0   0   0   0   0   3 2 3 5 
   5  10  10  10  10  10  10  10  10  10  10   1 4 
  10  10  10  10  10  10  10  10  10  10  10   1 4 
   2  10  10  10  10  10  10  10  10  10  10   1 6 
   4  10  10  10  10  10  10  10  10  10  10   1 6 
   2  10  10  10  10  10  10  10  10  10  10   2 8 7 
   5  10  10  10  10  10  10  10  10  10  10   4 12 11 10 9 
   7  10  10  10  10  10  10  10  10  10  10   2 15 11 
   1  10  10  10  10  10  10  10  10  10  10   2 14 13 
   6  10  10  10  10  10  10  10  10  10  10   2 14 13 
   9  10  10  10  10  10  10  10  10  10  10   1 13 
   4  10  10  10  10  10  10  10  10  10  10   1 14 
   5  10  10  10  10  10  10  10  10  10  10   2 18 16 
   2  10  10  10  10  10  10  10  10  10  10   2 18 16 
   4  10  10  10  10  10  10  10  10  10  10   2 18 16 
   8  10  10  10  10  10  10  10  10  10  10   1 17 
   1  10  10  10  10  10  10  10  10  10  10   2 21 19 
   2  10  10  10  10  10  10  10  10  10  10   2 21 19 
   1  10  10  10  10  10  10  10  10  10  10   1 20 
   2  10  10  10  10  10  10  10  10  10  10   1 22
   8  10  10  10  10  10  10  10  10  10  10   1 22
   0   0   0   0   0   0   0   0   0   0   0   0 
